NAME: ACTUAL_TOURS/amz3026
TYPE: TOUR
COMMENT: RouteID_f57f7cea-418c-4172-9c21-3e4b3e26775e
DIMENSION: 174
TOUR_SECTION
22
116
164
89
130
34
26
69
83
5
60
6
168
117
161
27
61
24
30
133
74
159
162
25
115
136
86
107
91
112
51
135
40
49
167
121
160
154
75
108
95
29
47
158
97
137
80
8
11
37
23
44
53
88
57
171
42
94
129
132
32
36
18
2
102
153
19
120
17
134
119
90
55
3
1
101
170
35
7
124
165
54
152
79
78
163
155
106
149
151
93
13
122
72
41
125
70
85
114
126
100
118
63
12
67
141
62
166
103
128
31
46
38
99
59
9
39
77
98
173
150
139
156
21
111
56
109
66
113
20
96
43
68
127
157
65
10
110
105
50
104
169
123
87
84
82
172
73
144
28
15
48
4
92
145
142
76
64
71
45
52
33
81
58
14
148
143
131
138
146
140
16
174
147
-1
EOF
